541 542 107 108 109 110 111 114 112 113 131 132 133 134 135 136 137 130 129 138 139 140 141 144 143 142 151 150 149 152 148 147 146 145 158 157 153 156 159 155 154 165 164 166 167 163 160 161 162 168 169 171 170 172 173 174 175 177 176 540 538 537 539 478 477 479 480 476 475 482 481 483 485 484 536 535 487 486 490 491 492 493 524 525 526 527 513 509 510 511 512 528 529 530 531 489 532 533 488 534 188 187 178 179 180 181 182 186 185 183 184 198 199 200 201 202 204 203 208 207 206 205 197 196 195 194 209 210 211 212 213 214 215 216 217 223 224 222 221 220 218 219 193 192 191 190 227 229 230 231 228 189 226 225 232 233 234 235 236 237 240 239 238 246 247 245 244 243 242 241 248 249 250 251 252 254 253 255 256 257 300 258 259 260 261 262 263 264 266 265 299 298 267 296 295 294 293 270 269 268 271 272 273 274 275 292 291 290 289 288 276 277 278 279 282 281 280 287 286 285 284 283 334 335 336 337 338 339 333 332 331 330 340 341 344 343 342 366 329 328 327 326 325 324 297 323 322 373 374 375 376 393 392 391 397 398 394 395 396 371 372 370 369 368 367 365 345 346 364 363 361 362 347 348 349 350 351 415 416 414 413 352 353 354 355 357 358 359 360 401 402 403 400 399 404 406 407 408 405 409 356 412 411 410 418 417 419 420 421 422 423 424 425 382 383 384 385 386 387 388 389 390 381 380 379 378 377 315 314 316 317 321 320 319 318 305 306 304 307 303 301 302 508 507 506 516 515 514 517 522 523 521 520 518 519 497 496 465 464 463 462 461 460 459 458 457 456 455 454 439 453 452 499 500 501 498 502 503 504 505 308 309 310 313 312 311 451 450 441 440 449 448 447 446 442 443 444 445 431 426 427 428 429 430 432 433 434 435 436 438 437 3 2 1 4 0 5 6 572 573 571 466 467 468 469 470 495 494 471 472 473 474 570 569 568 567 27 26 25 24 21 20 19 18 17 8 7 9 10 11 16 15 14 13 12 23 22 28 29 30 32 31 36 37 38 33 34 35 40 41 39 42 43 44 45 46 47 48 49 54 53 55 56 58 59 60 61 63 62 64 76 75 73 74 77 78 79 80 81 57 82 83 84 51 52 50 85 86 87 88 89 90 92 93 94 97 96 95 118 119 120 121 122 123 71 72 65 66 67 68 70 69 124 125 126 127 128 116 115 117 106 105 104 103 98 99 100 102 101 551 550 552 553 554 91 555 556 557 558 559 560 561 562 563 565 566 564 549 548 545 546 547 544 543